NAME: n200q35B.tsp, 200 nodes, semilla 111
COMMENT: Problema aleatorio de norma euclidea
DIMENSION: 200
CAPACITY: 35
EDGE_WEIGHT_TYPE: EUC_2D
NODE_COORD_SECTION
1   0.0000   0.0000
2 -355.0000 -98.0000
3 -243.0000 -186.0000
4 181.0000 394.0000
5 -229.0000 -332.0000
6  37.0000 -270.0000
7 -277.0000 -295.0000
8 416.0000 459.0000
9 -362.0000 -232.0000
10 -398.0000 355.0000
11 -21.0000  99.0000
12  72.0000 -354.0000
13 -405.0000 -366.0000
14 -67.0000 489.0000
15 302.0000 -433.0000
16 -239.0000 333.0000
17 -259.0000 372.0000
18  92.0000 -410.0000
19 -200.0000 367.0000
20 405.0000 -75.0000
21 329.0000 -292.0000
22 132.0000 -486.0000
23 -264.0000 355.0000
24 422.0000 -330.0000
25 -120.0000 212.0000
26 474.0000 176.0000
27 161.0000 -24.0000
28   7.0000 334.0000
29 391.0000 -318.0000
30 321.0000 -145.0000
31 164.0000 -482.0000
32 -420.0000 279.0000
33 178.0000 -207.0000
34 -232.0000  50.0000
35  68.0000 -166.0000
36 -122.0000 -284.0000
37 -267.0000 -242.0000
38 169.0000 -23.0000
39 264.0000 250.0000
40 440.0000 -480.0000
41 -471.0000 -147.0000
42 371.0000 -387.0000
43 140.0000 251.0000
44 356.0000 439.0000
45 310.0000 -38.0000
46 345.0000 -145.0000
47 -200.0000 -186.0000
48 -57.0000 -437.0000
49 -461.0000  -8.0000
50 -463.0000  58.0000
51  24.0000 -489.0000
52 145.0000 497.0000
53 495.0000 149.0000
54 461.0000  77.0000
55 -197.0000 -123.0000
56 -58.0000  17.0000
57 307.0000 235.0000
58 -219.0000 234.0000
59 100.0000  29.0000
60 -289.0000 -95.0000
61 -66.0000 -272.0000
62 -213.0000 394.0000
63 276.0000 -401.0000
64 217.0000 -205.0000
65 -464.0000 -105.0000
66 438.0000 -258.0000
67 -266.0000 310.0000
68 -227.0000 -270.0000
69 -425.0000 -402.0000
70 496.0000 127.0000
71 -319.0000 500.0000
72 -345.0000 -327.0000
73 -387.0000 -98.0000
74 295.0000 263.0000
75 -478.0000 -43.0000
76 -153.0000 -284.0000
77  64.0000 -297.0000
78  72.0000 -42.0000
79 415.0000 -441.0000
80 259.0000 -147.0000
81  25.0000 129.0000
82 383.0000 118.0000
83 165.0000 384.0000
84 355.0000 -384.0000
85 381.0000 -173.0000
86 -136.0000 327.0000
87 290.0000   0.0000
88 -437.0000 432.0000
89 -169.0000  23.0000
90 146.0000 -28.0000
91 252.0000 227.0000
92 405.0000 288.0000
93 252.0000 -236.0000
94 263.0000 -309.0000
95 -55.0000 -304.0000
96 -52.0000 -414.0000
97 -386.0000 171.0000
98 -307.0000 -447.0000
99 -492.0000 -35.0000
100 -262.0000 323.0000
101 -231.0000 -357.0000
102 104.0000 228.0000
103 -377.0000 264.0000
104 211.0000 277.0000
105  25.0000 -307.0000
106 -258.0000 -408.0000
107 435.0000 -121.0000
108 -24.0000  76.0000
109 -270.0000 489.0000
110 297.0000 323.0000
111 122.0000 321.0000
112 -43.0000 -190.0000
113 -105.0000 271.0000
114  96.0000 305.0000
115 -139.0000 -173.0000
116 -437.0000  59.0000
117 116.0000  86.0000
118 -146.0000 -496.0000
119 -266.0000 -275.0000
120 399.0000 -71.0000
121 -221.0000   9.0000
122 361.0000 -132.0000
123 352.0000 194.0000
124 481.0000 273.0000
125 411.0000 -387.0000
126 285.0000 468.0000
127 -198.0000 291.0000
128 446.0000 381.0000
129 140.0000 300.0000
130 423.0000 212.0000
131 -81.0000  60.0000
132 494.0000   0.0000
133 -60.0000 -107.0000
134 -301.0000 -287.0000
135 -183.0000 -339.0000
136 414.0000  76.0000
137 -411.0000 154.0000
138 -306.0000 272.0000
139 -423.0000 299.0000
140  95.0000 271.0000
141 -43.0000 336.0000
142 -484.0000  95.0000
143 -23.0000 237.0000
144 -98.0000 122.0000
145  69.0000  59.0000
146 -13.0000 235.0000
147 -326.0000 -169.0000
148 218.0000  57.0000
149 -485.0000 191.0000
150 -442.0000 232.0000
151 358.0000 -102.0000
152 -127.0000 446.0000
153 400.0000 312.0000
154 -165.0000 -212.0000
155 -480.0000  98.0000
156 483.0000 -498.0000
157 250.0000 251.0000
158 381.0000  61.0000
159 167.0000 407.0000
160 301.0000 362.0000
161 386.0000 -422.0000
162 -333.0000 -11.0000
163 -282.0000  85.0000
164 -88.0000 -352.0000
165 -441.0000 -196.0000
166 -168.0000 -371.0000
167 -321.0000  35.0000
168 -353.0000 199.0000
169 -94.0000  59.0000
170 -479.0000 360.0000
171 -45.0000 112.0000
172 -131.0000 366.0000
173 -152.0000 -355.0000
174 -319.0000 -429.0000
175 -276.0000  57.0000
176 -124.0000 397.0000
177  12.0000 -485.0000
178 -480.0000 444.0000
179 476.0000 -460.0000
180  79.0000 155.0000
181 242.0000 253.0000
182 488.0000 288.0000
183 -302.0000 -15.0000
184 -135.0000 -465.0000
185 252.0000 -100.0000
186 127.0000 211.0000
187 492.0000 -436.0000
188 268.0000 -234.0000
189 297.0000 -266.0000
190 -376.0000 188.0000
191 -96.0000 -476.0000
192 419.0000  27.0000
193 313.0000 454.0000
194 -454.0000 382.0000
195 202.0000 -466.0000
196 -288.0000   3.0000
197 -286.0000 -319.0000
198 439.0000 -56.0000
199 169.0000 -493.0000
200 447.0000 -379.0000
DISPLAY_DATA_SECTION:
 1  250  250
 2   72  201
 3  128  157
 4  340  447
 5  135   84
 6  268  115
 7  111  102
 8  458  479
 9   69  134
10   51  427
11  239  299
12  286   73
13   47   67
14  216  494
15  401   33
16  130  416
17  120  436
18  296   45
19  150  433
20  452  212
21  414  104
22  316    7
23  118  427
24  461   85
25  190  356
26  487  338
27  330  238
28  253  417
29  445   91
30  410  177
31  332    9
32   40  389
33  339  146
34  134  275
35  284  167
36  189  108
37  116  129
38  334  238
39  382  375
40  470   10
41   14  176
42  435   56
43  320  375
44  428  469
45  405  231
46  422  177
47  150  157
48  221   31
49   19  246
50   18  279
51  262    5
52  322  498
53  497  324
54  480  288
55  151  188
56  221  258
57  403  367
58  140  367
59  300  264
60  105  202
61  217  114
62  143  447
63  388   49
64  358  147
65   18  197
66  469  121
67  117  405
68  136  115
69   37   49
70  498  313
71   90  500
72   77   86
73   56  201
74  397  381
75   11  228
76  173  108
77  282  101
78  286  229
79  457   29
80  379  176
81  262  314
82  441  309
83  332  442
84  427   58
85  440  163
86  182  413
87  395  250
88   31  466
89  165  261
90  323  236
91  376  363
92  452  394
93  376  132
94  381   95
95  222   98
96  224   43
97   57  335
98   96   26
99    4  232
100  119  411
101  134   71
102  302  364
103   61  382
104  355  388
105  262   96
106  121   46
107  467  189
108  238  288
109  115  494
110  398  411
111  311  410
112  228  155
113  197  385
114  298  402
115  180  163
116   31  279
117  308  293
118  177    2
119  117  112
120  449  214
121  139  254
122  430  184
123  426  347
124  490  386
125  455   56
126  392  484
127  151  395
128  473  440
129  320  400
130  461  356
131  209  280
132  497  250
133  220  196
134   99  106
135  158   80
136  457  288
137   44  327
138   97  386
139   38  399
140  297  385
141  228  418
142    8  297
143  238  368
144  201  311
145  284  279
146  243  367
147   87  165
148  359  278
149    7  345
150   29  366
151  429  199
152  186  473
153  450  406
154  167  144
155   10  299
156  491    1
157  375  375
158  440  280
159  333  453
160  400  431
161  443   39
162   83  244
163  109  292
164  206   74
165   29  152
166  166   64
167   89  267
168   73  349
169  203  279
170   10  430
171  227  306
172  184  433
173  174   72
174   90   35
175  112  278
176  188  448
177  256    7
178   10  472
179  488   20
180  289  327
181  371  376
182  494  394
183   99  242
184  182   17
185  376  200
186  313  355
187  496   32
188  384  133
189  398  117
190   62  344
191  202   12
192  459  263
193  406  477
194   23  441
195  351   17
196  106  251
197  107   90
198  469  222
199  334    3
200  473   60
DEMAND_SECTION
1 -9
2 6
3 4
4 -6
5 2
6 6
7 9
8 -7
9 -1
10 -7
11 10
12 7
13 8
14 -6
15 -1
16 4
17 -5
18 -8
19 7
20 -4
21 -3
22 8
23 4
24 -5
25 -3
26 10
27 10
28 4
29 -7
30 -2
31 -1
32 1
33 9
34 -3
35 -1
36 -2
37 -9
38 7
39 2
40 2
41 3
42 2
43 -4
44 -8
45 0
46 0
47 -4
48 0
49 0
50 8
51 -4
52 -5
53 4
54 -7
55 6
56 7
57 -6
58 1
59 9
60 -6
61 8
62 5
63 5
64 9
65 0
66 -3
67 -5
68 8
69 -8
70 -5
71 9
72 -4
73 -1
74 3
75 4
76 -8
77 -9
78 0
79 -10
80 1
81 4
82 -3
83 7
84 4
85 -2
86 -2
87 3
88 10
89 -1
90 9
91 -6
92 -5
93 7
94 10
95 9
96 -9
97 -5
98 -9
99 0
100 7
101 0
102 -9
103 7
104 -8
105 4
106 9
107 -3
108 -7
109 -8
110 -5
111 -8
112 6
113 7
114 5
115 -5
116 -1
117 7
118 10
119 -8
120 7
121 -5
122 -7
123 3
124 -9
125 -1
126 4
127 4
128 -4
129 1
130 -2
131 1
132 -1
133 -8
134 7
135 -6
136 0
137 10
138 6
139 5
140 10
141 0
142 -3
143 -10
144 0
145 4
146 -6
147 0
148 -8
149 -2
150 1
151 -6
152 10
153 9
154 -7
155 -10
156 -9
157 4
158 -8
159 0
160 -5
161 8
162 -8
163 3
164 1
165 3
166 -2
167 -5
168 -1
169 1
170 -8
171 3
172 4
173 -8
174 1
175 -6
176 4
177 -2
178 -3
179 -9
180 1
181 -3
182 4
183 -6
184 1
185 -2
186 0
187 0
188 -8
189 0
190 -3
191 8
192 8
193 -8
194 -4
195 -1
196 1
197 -4
198 8
199 9
200 8
EOF